sat
(:max-memory          18.65
 :memory              17.66
 :num-allocs          5243156492.00
 :rlimit-count        4998326
 :sls-constraints     4139
 :sls-ddfw-flips      2436345.00
 :sls-ddfw-reinits    22
 :sls-ddfw-restarts   1740
 :sls-ddfw-shifts     1168400.00
 :sls.euf-conflict    10380
 :solve-eqs-elim-vars 5
 :solve-eqs-steps     12
 :time                3.75
 :total-time          3.73)
